41
Generated from AOP output
O     -0.727865    -1.293222     2.547545
P     -0.670810    -0.857224     1.192395
C     -2.182020    -0.050407     0.648783
C     -2.165291     0.881885    -0.436070
C     -3.381254     1.519057    -0.832091
C     -4.601659     1.230350    -0.143040
C     -4.606638     0.303195     0.944119
C     -3.391720    -0.336526     1.344514
C      0.683464     0.244719     0.684194
C      0.774165     1.587772     1.277018
C      0.160473     1.909959     2.555783
C      0.328024     3.286910     2.862632
S      1.157291     4.129757     1.656077
C      1.346144     2.755229     0.687564
C      1.445525    -0.340428    -0.315016
C      2.673949     0.251355    -0.918068
C      3.736852     0.860848    -0.135851
C      4.776249     1.332373    -0.980791
S      4.463043     1.055842    -2.619750
C      2.976336     0.304466    -2.304372
C      0.940172    -1.683483    -0.744041
C      1.519639    -2.541851    -1.721429
C      0.883083    -3.803866    -1.990405
C     -0.295287    -4.198314    -1.288582
C     -0.863053    -3.335356    -0.286818
C     -0.239993    -2.088249    -0.044502
H     -1.262437     1.107675    -0.956756
H     -3.375002     2.214218    -1.641512
H     -5.507476     1.710630    -0.440776
H     -5.515495     0.090464     1.461206
H     -3.396912    -1.021357     2.159193
H     -0.335212     1.214328     3.179743
H     -0.062562     3.683705     3.776058
H      1.811339     2.730643    -0.273795
H      3.739812     0.944207     0.920016
H      5.636720     1.805418    -0.557267
H      2.299634    -0.077244    -3.038993
H      2.407757    -2.290860    -2.253755
H      1.306440    -4.454786    -2.723111
H     -0.750335    -5.140246    -1.496373
H     -1.735090    -3.641583     0.246323
