35
Generated from AOP output
C     -2.698067    -3.018347    -1.229302
C     -2.536480    -3.036252     0.191151
C     -1.761315    -2.019278     0.834832
C     -1.156419    -0.992462     0.057265
C     -0.319227     0.079186     0.810127
C      1.168010    -0.361236     0.911496
C      1.796793    -1.116437    -0.116980
C      3.173628    -1.486693     0.022565
C      3.908607    -1.102518     1.186771
C      3.265991    -0.344235     2.214476
C      1.890788     0.027884     2.073841
C     -0.433703     1.458401     0.102467
C     -1.480781     2.326566     0.520540
C     -1.636678     3.605487    -0.103554
C     -0.742497     4.004765    -1.145257
C      0.304829     3.124182    -1.558588
C      0.462334     1.845423    -0.932326
C     -1.311087    -0.964128    -1.356501
C     -2.084699    -1.983191    -2.000916
H     -3.274423    -3.776256    -1.712622
H     -2.991776    -3.806831     0.773372
H     -1.647807    -2.039637     1.898092
H     -0.711926     0.176605     1.806702
H      1.272884    -1.407417    -0.999277
H      3.649502    -2.051811    -0.748359
H      4.934637    -1.380428     1.287950
H      3.809370    -0.053812     3.086524
H      1.417928     0.593274     2.848799
H     -2.153110     2.037427     1.300410
H     -2.421291     4.258405     0.209739
H     -0.856968     4.957437    -1.613790
H      0.974290     3.417241    -2.337098
H      1.245980     1.202902    -1.264990
H     -0.856047    -0.207912    -1.955391
H     -2.201273    -1.966303    -3.062169
