41
Properties=species:S:1:pos:R:3 Generated=T from=T AOP=T output=T pbc="F F F"
O       -0.72786500      -1.29322200       2.54754500
P       -0.67081000      -0.85722400       1.19239500
C       -2.18202000      -0.05040700       0.64878300
C       -2.16529100       0.88188500      -0.43607000
C       -3.38125400       1.51905700      -0.83209100
C       -4.60165900       1.23035000      -0.14304000
C       -4.60663800       0.30319500       0.94411900
C       -3.39172000      -0.33652600       1.34451400
C        0.68346400       0.24471900       0.68419400
C        0.77416500       1.58777200       1.27701800
C        0.16047300       1.90995900       2.55578300
C        0.32802400       3.28691000       2.86263200
S        1.15729100       4.12975700       1.65607700
C        1.34614400       2.75522900       0.68756400
C        1.44552500      -0.34042800      -0.31501600
C        2.67394900       0.25135500      -0.91806800
C        3.73685200       0.86084800      -0.13585100
C        4.77624900       1.33237300      -0.98079100
S        4.46304300       1.05584200      -2.61975000
C        2.97633600       0.30446600      -2.30437200
C        0.94017200      -1.68348300      -0.74404100
C        1.51963900      -2.54185100      -1.72142900
C        0.88308300      -3.80386600      -1.99040500
C       -0.29528700      -4.19831400      -1.28858200
C       -0.86305300      -3.33535600      -0.28681800
C       -0.23999300      -2.08824900      -0.04450200
H       -1.26243700       1.10767500      -0.95675600
H       -3.37500200       2.21421800      -1.64151200
H       -5.50747600       1.71063000      -0.44077600
H       -5.51549500       0.09046400       1.46120600
H       -3.39691200      -1.02135700       2.15919300
H       -0.33521200       1.21432800       3.17974300
H       -0.06256200       3.68370500       3.77605800
H        1.81133900       2.73064300      -0.27379500
H        3.73981200       0.94420700       0.92001600
H        5.63672000       1.80541800      -0.55726700
H        2.29963400      -0.07724400      -3.03899300
H        2.40775700      -2.29086000      -2.25375500
H        1.30644000      -4.45478600      -2.72311100
H       -0.75033500      -5.14024600      -1.49637300
H       -1.73509000      -3.64158300       0.24632300
