41
Properties=species:S:1:pos:R:3 Generated=T from=T AOP=T output=T pbc="F F F"
O       -0.52174400      -1.06159000       2.48802300
P       -0.64394700      -0.70234600       1.11544600
C       -2.23121100      -0.01814600       0.67350200
C       -2.42411300       1.33427000       0.22711700
C       -3.74184900       1.81709000      -0.03159800
C       -4.88024700       0.97427700       0.18039500
C       -4.68911000      -0.36025400       0.66441600
C       -3.37687600      -0.84752000       0.92881200
C        0.59511500       0.38099500       0.41123700
C        0.81025700       1.72785400       0.90054700
C        0.25649000       2.20718800       2.16287600
C        0.56147300       3.57204700       2.36275500
S        1.43476000       4.25517500       1.07407200
C        1.47660700       2.80774200       0.20995400
C        1.49091800      -0.34696500      -0.47391200
C        2.81827700       0.14187000      -0.86240300
C        3.70680100       0.86181600       0.04990100
C        4.91686800       1.21998200      -0.60196600
S        4.96081000       0.72369600      -2.21633600
C        3.43479700       0.00857000      -2.14819500
C        0.94304000      -1.63873900      -0.83657000
C        1.50964100      -2.63067100      -1.70597600
C        0.80237300      -3.84737600      -1.92752400
C       -0.46210700      -4.09655000      -1.25950200
C       -1.00948700      -3.14758600      -0.35679600
C       -0.33508800      -1.89253600      -0.15394700
H       -1.59707100       1.98191700       0.05466800
H       -3.87831400       2.81648900      -0.38152800
H       -5.86264000       1.34185400      -0.01353600
H       -5.53545600      -0.98742700       0.83991500
H       -3.24327100      -1.83144200       1.30725600
H       -0.28668000       1.60501400       2.84007000
H        0.23717500       4.07351800       3.25013400
H        1.89209400       2.67036800      -0.76353800
H        3.49513600       1.06320700       1.06683200
H        5.67625900       1.74809000      -0.06502400
H        2.92697200      -0.45753200      -2.96387900
H        2.44903000      -2.48689600      -2.19017500
H        1.20760000      -4.58968200      -2.57622900
H       -0.96532000      -5.02203800      -1.43178000
H       -1.91796300      -3.36772700       0.15248700
