41
Properties=species:S:1:pos:R:3:forces:R:3 Generated=T from=T AOP=T output=T energy=-1587.5922292651424 pbc="F F F"
O       -0.68279102      -1.25060450       2.53228279      -0.01968032      -0.02233049       0.02515610
P       -0.66562945      -0.82475330       1.17329129      -0.00059785       0.03561202      -0.09206001
C       -2.19931973      -0.04104057       0.65736716       0.05515966      -0.03306402       0.03403420
C       -2.20152769       0.99724692      -0.32644114      -0.01272454      -0.03925161       0.04177575
C       -3.44182245       1.60514016      -0.69444072      -0.01265288      -0.01285667       0.01181421
C       -4.66120301       1.17946657      -0.07807353      -0.00348823      -0.00698982       0.00928386
C       -4.64533625       0.14606672       0.91038122       0.00697316       0.01333712      -0.01045738
C       -3.40745291      -0.46422477       1.28510187       0.03003215       0.02751757      -0.02559989
C        0.67975142       0.26979362       0.63465677      -0.01612711      -0.00256065       0.01732415
C        0.78393630       1.62093583       1.20246014       0.01800105       0.00549962       0.00715875
C        0.17961870       1.97264444       2.47630900       0.00846861      -0.00110240      -0.00092940
C        0.37562204       3.35044576       2.76170609      -0.00414905       0.01282130       0.00416954
S        1.21379010       4.15954737       1.53894826      -0.01357006       0.01375192       0.00152706
C        1.36912490       2.76898073       0.58862835      -0.00085462       0.00901728       0.00926613
C        1.45358258      -0.33846158      -0.34171902      -0.01944142      -0.01558533       0.04215494
C        2.70660185       0.23082267      -0.90880636      -0.00490144      -0.01589277       0.00332677
C        3.73384562       0.85912149      -0.09367312      -0.00612540      -0.00886463      -0.00865262
C        4.80922769       1.30933103      -0.90315675       0.00994413      -0.00553648      -0.01571750
S        4.56977081       0.98870865      -2.54570755       0.02047668       0.00892525      -0.03018769
C        3.07015966       0.24410719      -2.28077876       0.01794781       0.01401446      -0.01109791
C        0.93845795      -1.68011394      -0.75972483       0.00376559      -0.01226919       0.02359750
C        1.51650410      -2.55918434      -1.71870629       0.00454387      -0.01163101       0.00212587
C        0.86422430      -3.81505285      -1.97764553      -0.01314583      -0.01324830       0.00053797
C       -0.32925455      -4.18164708      -1.28620825      -0.00135335      -0.01589383       0.00272635
C       -0.89384751      -3.29977092      -0.29984550       0.00822365      -0.00892032       0.01268083
C       -0.25143954      -2.06195127      -0.06352657      -0.02368124       0.00665691       0.02563866
H       -1.29489018       1.31958658      -0.78642795      -0.06071841       0.01528371      -0.01376175
H       -3.45699351       2.38063613      -1.42665310       0.01011520       0.00507674      -0.01140056
H       -5.58533782       1.63815392      -0.35529746       0.02159227      -0.00932731       0.00534010
H       -5.55680430      -0.16365341       1.37113193       0.01384346      -0.00765915       0.00230872
H       -3.38533857      -1.22929642       2.02636615      -0.04327663       0.04495040      -0.04033914
H       -0.32562726       1.29405430       3.11085737       0.00184339       0.00893694       0.00872350
H       -0.00208983       3.76647422       3.67137047      -0.00641308       0.01721525       0.01796986
H        1.82799117       2.71858700      -0.37487811      -0.01034909       0.00972819       0.01412072
H        3.68893699       0.96994751       0.95882769       0.00287240      -0.00445865      -0.00659538
H        5.64865208       1.79560608      -0.45407212       0.02222583       0.00645051       0.00437002
H        2.42513031      -0.15686302      -3.03339767       0.00533796       0.01245653      -0.01426324
H        2.41626234      -2.33052239      -2.24074777      -0.00246832      -0.00096288      -0.00943031
H        1.28724834      -4.48359198      -2.69425914       0.00157510      -0.00287152      -0.00895072
H       -0.79604082      -5.11947079      -1.48509696      -0.00236720      -0.01239495      -0.01815263
H       -1.77569305      -3.58519814       0.22959701       0.01514408      -0.00357973      -0.00953541
