41
Properties=species:S:1:pos:R:3:forces:R:3 Generated=T from=T AOP=T output=T energy=-1587.5682416664429 pbc="F F F"
O       -0.63990786      -1.20641416       2.51437265      -0.03304554      -0.03778842       0.05996845
P       -0.66144954      -0.79171568       1.15272960       0.01774398       0.05718302      -0.16614896
C       -2.21500562      -0.03234903       0.66455225       0.08112707      -0.04331052       0.03915362
C       -2.24628353       1.10339743      -0.20400842       0.01714911      -0.08154670       0.06479066
C       -3.50806195       1.68147460      -0.54442721      -0.05703749      -0.01049060       0.00955090
C       -4.71753016       1.12948225      -0.01448678       0.01891933      -0.02264290       0.01964591
C       -4.67175592      -0.00101377       0.86223887      -0.02172119       0.04340965      -0.02655216
C       -3.41352308      -0.58177204       1.21019982       0.07496380       0.02699001      -0.01994425
C        0.67499583       0.29505133       0.58513781      -0.02067758      -0.00423762       0.01995798
C        0.79371646       1.65320999       1.12991862       0.03023639       0.01342792       0.01368123
C        0.19911769       2.03280851       2.39940527       0.01783611       0.00027963      -0.00039792
C        0.42170100       3.41075276       2.66372217      -0.00718768       0.02214065       0.00760743
S        1.26789371       4.18755140       1.42566252      -0.02624654       0.02313752       0.00207263
C        1.39211697       2.78196435       0.49366525       0.00169075       0.01320419       0.01687867
C        1.46101813      -0.33603207      -0.36780090      -0.04098885      -0.02283412       0.08020003
C        2.73697297       0.21107080      -0.89967790      -0.00721777      -0.02703098       0.00212516
C        3.72984935       0.85735627      -0.05557325      -0.00221094      -0.01086799      -0.01439007
C        4.83946114       1.28662960      -0.82801966       0.01682957      -0.01098843      -0.02065838
S        4.67192739       0.92279826      -2.47059053       0.04069438       0.01487024      -0.05252067
C        3.16064683       0.18644653      -2.25349509       0.02422102       0.02102084      -0.01551906
C        0.93655666      -1.67668082      -0.77451777       0.00801504      -0.01924021       0.04293482
C        1.51287049      -2.57549610      -1.71543006       0.00740231      -0.02411038       0.00431434
C        0.84565350      -3.82552149      -1.96480704      -0.02607419      -0.02372411       0.00262829
C       -0.36169495      -4.16539460      -1.28382013      -0.00200974      -0.02771827       0.00747182
C       -0.92299238      -3.26500533      -0.31255327       0.01179085      -0.01873163       0.02367794
C       -0.26306447      -2.03584873      -0.08206835      -0.04272328       0.00484895       0.03970123
H       -1.34543212       1.51699089      -0.59713403      -0.09939985       0.01813923      -0.02101719
H       -3.54813616       2.52920229      -1.19036501       0.01093653       0.00961107      -0.01646920
H       -5.65755866       1.56622169      -0.27114683       0.00821176      -0.00282057       0.00203675
H       -5.57787653      -0.40179094       1.25926305       0.02139825      -0.01010406       0.00083714
H       -3.36254899      -1.41837183       1.86961887      -0.06689790       0.07295142      -0.06497038
H       -0.31599571       1.37125491       3.04399076       0.00691684       0.01644386       0.01323603
H        0.05658106       3.84565171       3.56917678      -0.01190472       0.03053275       0.03076487
H        1.84422126       2.70664193      -0.47167886      -0.01590633       0.01972173       0.02694364
H        3.63946570       0.99429724       0.99073114       0.00551178      -0.00841561      -0.01166075
H        5.65812024       1.78506011      -0.35514245       0.03397992       0.00738494       0.00717986
H        2.54842404      -0.23306317      -3.02270946       0.00449321       0.01891366      -0.02461257
H        2.42319781      -2.36849885      -2.22773833      -0.00780532       0.00100994      -0.01633419
H        1.26813903      -4.51072178      -2.66561833       0.00305409      -0.00382906      -0.01657447
H       -0.83983353      -5.09909669      -1.47420855      -0.00215013      -0.01832605      -0.03225314
H       -1.81399652      -3.53052356       0.21263259       0.02808295      -0.00646299      -0.01733604
