41
Properties=species:S:1:pos:R:3:forces:R:3 Generated=T from=T AOP=T output=T energy=-1587.507219044828 pbc="F F F"
O       -0.56060112      -1.11218096       2.46992781      -0.03439355      -0.03189015       0.01487146
P       -0.65243030      -0.72215685       1.10377762       0.01163699       0.03879850      -0.05356427
C       -2.24055306      -0.01467030       0.67820496       0.01749569      -0.02726875      -0.00782111
C       -2.35923450       1.27366778       0.07345864      -0.01534786      -0.03831369       0.01577697
C       -3.66172991       1.79114612      -0.21167760      -0.01219250      -0.00990219       0.00480671
C       -4.82544716       1.02742050       0.11423736      -0.00909620      -0.00623633       0.00701834
C       -4.69534179      -0.25578298       0.73497321       0.00776307       0.01644937       0.00682766
C       -3.39782905      -0.77523788       1.02863533       0.01708292       0.04132875      -0.01415459
C        0.66295044       0.34773993       0.48318659       0.07879106      -0.00426569      -0.05159366
C        0.81337563       1.71761856       0.98376551       0.03463414       0.05593311       0.03196186
C        0.24039336       2.15188210       2.24479513       0.03688814       0.01309747       0.00336113
C        0.51439937       3.52807689       2.46696268      -0.00879153       0.03085620       0.01167870
S        1.37494837       4.24068214       1.19999482      -0.05294739       0.02300479       0.00222377
C        1.43711748       2.80735011       0.30536308       0.00806892       0.00590131       0.02548199
C        1.47512593      -0.32961821      -0.41999068      -0.09254954      -0.00408182       0.14877580
C        2.79423789       0.17236436      -0.88107037       0.01398780      -0.02800093      -0.00700536
C        3.71977223       0.85264790       0.01389168       0.02942252       0.00115836      -0.01577160
C        4.89505790       1.23922537      -0.67861988       0.02045130      -0.01970106      -0.01053600
S        4.86894108       0.79037745      -2.30886817       0.05837438       0.01925142      -0.05331967
C        3.33787921       0.07322310      -2.18789440       0.00638715       0.02168729      -0.01302138
C        0.93163685      -1.66863602      -0.80288082       0.03389208      -0.01948969       0.05725476
C        1.50376753      -2.60632490      -1.70659273       0.01221611      -0.06206455      -0.00073292
C        0.80798477      -3.84496614      -1.93791064      -0.05023147      -0.03257035       0.01188529
C       -0.42473538      -4.13213596      -1.27866421      -0.00148272      -0.04106570       0.01838687
C       -0.97864687      -3.19424798      -0.33888426       0.00833692      -0.04912190       0.03699238
C       -0.28826032      -1.98022459      -0.12032690      -0.03939958      -0.06853489       0.00649292
H       -1.49823601       1.85040637      -0.17025517      -0.07424886       0.00325581      -0.02329596
H       -3.76066086       2.75262100      -0.66242301      -0.00968191       0.00864429      -0.01752959
H       -5.79508568       1.41895807      -0.10086897      -0.00690392      -0.00007137      -0.00038335
H       -5.56690864      -0.81806583       0.98655195       0.01183317       0.00349331      -0.00761503
H       -3.28876610      -1.72366053       1.50188867      -0.04751863       0.05848893      -0.04390902
H       -0.29532387       1.52627659       2.90856325       0.02458161       0.02923517       0.00941879
H        0.17445974       4.00057976       3.36265711      -0.01804013       0.04683843       0.04652584
H        1.87626876       2.68249913      -0.66155850      -0.01981921       0.04286078       0.04691542
H        3.54286059       1.04043669       1.04085542       0.01068021      -0.01716822      -0.02446249
H        5.67196092       1.76089378      -0.16122370       0.02398664      -0.01239844       0.00040661
H        2.79672131      -0.38173476      -2.98845526      -0.01552301       0.01877372      -0.03838232
H        2.43325824      -2.44312646      -2.20006008      -0.02541515       0.01655901      -0.01914929
H        1.22821426      -4.56271947      -2.60649853       0.00814710       0.00210432      -0.02800140
H       -0.92567518      -5.05740087      -1.45239715       0.00958368      -0.00914368      -0.04952085
H       -1.88586686      -3.42319758       0.17543078       0.04934155      -0.01643092      -0.02729344
