41
Properties=species:S:1:pos:R:3:forces:R:3 Generated=T from=T AOP=T output=T energy=-1587.5403632205016 pbc="F F F"
O       -0.59969293      -1.16085786       2.49378939      -0.03720707      -0.03783983       0.04863991
P       -0.65710696      -0.75793193       1.12971422       0.02159089       0.05398502      -0.14227206
C       -2.22853371      -0.02382392       0.67122115       0.06858473      -0.04004063       0.02465106
C       -2.29854896       1.19576664      -0.07091855       0.01539718      -0.08083506       0.05161745
C       -3.58082251       1.74416031      -0.38406253      -0.05569567      -0.01244960       0.00621812
C       -4.77151332       1.07949994       0.04874648       0.01669629      -0.02126525       0.01761817
C       -4.68774757      -0.13465942       0.80292802      -0.02129588       0.04340435      -0.01783811
C       -3.40986147      -0.68565936       1.12407262       0.06951949       0.03375301      -0.01574209
C        0.66939158       0.32076525       0.53523613       0.01030227      -0.00404007      -0.00273404
C        0.80362724       1.68497010       1.05820335       0.03528217       0.02912538       0.02164033
C        0.21905271       2.09169457       2.32333234       0.02730607       0.00480011       0.00138098
C        0.46725635       3.46912736       2.56689102      -0.00882379       0.02796319       0.01016673
S        1.32080912       4.21423401       1.31434943      -0.03906863       0.02625060       0.00204616
C        1.41454062       2.79459332       0.40067897       0.00567024       0.01244899       0.02255754
C        1.46807936      -0.33310085      -0.39355914      -0.06494043      -0.01968187       0.11498195
C        2.76578219       0.19188034      -0.89055762      -0.00165976      -0.03139096      -0.00123808
C        3.72515648       0.85525172      -0.02023095       0.00961706      -0.00752789      -0.01687916
C        4.86766771       1.26358690      -0.75423303       0.02081175      -0.01579177      -0.01878823
S        4.77039329       0.85754294      -2.39274337       0.05392127       0.01800288      -0.06001813
C        3.24874680       0.13023553      -2.22296916       0.02107146       0.02344449      -0.01632209
C        0.93432851      -1.67293762      -0.78869131       0.01847118      -0.02071674       0.05385159
C        1.50867407      -2.59101387      -1.71144681       0.00993414      -0.04118785       0.00322246
C        0.82712691      -3.83536867      -1.95170895      -0.03799012      -0.02990141       0.00638952
C       -0.39312586      -4.14913332      -1.28130185      -0.00275205      -0.03577531       0.01339208
C       -0.95092182      -3.23030476      -0.32531983       0.01150719      -0.03191401       0.03153897
C       -0.27511695      -2.00906384      -0.10068459      -0.04819776      -0.01842223       0.03290946
H       -1.41301006       1.69409947      -0.39203594      -0.10428802       0.01301889      -0.02485496
H       -3.64868094       2.65398826      -0.93629680       0.00399644       0.01126945      -0.01789586
H       -5.72652287       1.49420119      -0.18748413      -0.00092239      -0.00051516       0.00086938
H       -5.58060084      -0.61940898       1.13030151       0.02126921      -0.00653648      -0.00290588
H       -3.32980872      -1.58346144       1.69418138      -0.06808947       0.07681185      -0.06582852
H       -0.30604881       1.44753006       2.97755258       0.01454529       0.02327301       0.01321702
H        0.11456998       3.92256866       3.46777527      -0.01592783       0.04031719       0.03997758
H        1.86007635       2.69478098      -0.56582030      -0.01873120       0.03084292       0.03772822
H        3.59130151       1.01754717       1.01762224       0.00815860      -0.01272692      -0.01759502
H        5.66573709       1.77368014      -0.25890797       0.03450264       0.00126537       0.00616954
H        2.67065212      -0.30701181      -3.00799613      -0.00229299       0.02102881      -0.03255439
H        2.42876459      -2.40552466      -2.21436280      -0.01537197       0.00636039      -0.01967957
H        1.24872416      -4.53672367      -2.63675593       0.00473549      -0.00225695      -0.02253116
H       -0.88243702      -5.07872940      -1.46348223       0.00145292      -0.01701616      -0.04225758
H       -1.85035802      -3.47698472       0.19497401       0.03891104      -0.00953375      -0.02284929
