35
Properties=species:S:1:pos:R:3 Generated=T from=T AOP=T output=T pbc="F F F"
C       -2.69806700      -3.01834700      -1.22930200
C       -2.53648000      -3.03625200       0.19115100
C       -1.76131500      -2.01927800       0.83483200
C       -1.15641900      -0.99246200       0.05726500
C       -0.31922700       0.07918600       0.81012700
C        1.16801000      -0.36123600       0.91149600
C        1.79679300      -1.11643700      -0.11698000
C        3.17362800      -1.48669300       0.02256500
C        3.90860700      -1.10251800       1.18677100
C        3.26599100      -0.34423500       2.21447600
C        1.89078800       0.02788400       2.07384100
C       -0.43370300       1.45840100       0.10246700
C       -1.48078100       2.32656600       0.52054000
C       -1.63667800       3.60548700      -0.10355400
C       -0.74249700       4.00476600      -1.14525700
C        0.30482900       3.12418200      -1.55858800
C        0.46233400       1.84542300      -0.93232600
C       -1.31108700      -0.96412800      -1.35650100
C       -2.08469900      -1.98319100      -2.00091600
H       -3.27442300      -3.77625600      -1.71262200
H       -2.99177600      -3.80683100       0.77337200
H       -1.64780700      -2.03963700       1.89809200
H       -0.71192600       0.17660500       1.80670200
H        1.27288400      -1.40741700      -0.99927700
H        3.64950200      -2.05181100      -0.74835900
H        4.93463700      -1.38042800       1.28795000
H        3.80937000      -0.05381200       3.08652400
H        1.41792800       0.59327400       2.84879900
H       -2.15311000       2.03742700       1.30041000
H       -2.42129100       4.25840500       0.20973900
H       -0.85696800       4.95743700      -1.61379000
H        0.97429000       3.41724100      -2.33709800
H        1.24598000       1.20290200      -1.26499000
H       -0.85604700      -0.20791200      -1.95539100
H       -2.20127300      -1.96630300      -3.06216900
