35
Properties=species:S:1:pos:R:3:forces:R:3 Generated=T from=T AOP=T output=T energy=-1035.9048168287331 pbc="F F F"
C       -2.71508209      -3.00496938      -1.24929574      -0.02463190      -0.03353313      -0.00957866
C       -2.54075122      -3.04685411       0.16776020       0.01767586       0.01755475       0.01613808
C       -1.76591999      -2.03500702       0.81937105       0.01473502      -0.01590524       0.02273309
C       -1.17002525      -0.99592358       0.05354023       0.06150789       0.04255075       0.02996385
C       -0.32460570       0.06284058       0.81837983       0.04155704       0.01857174       0.02158510
C        1.16606956      -0.36749875       0.91838356       0.00357594      -0.02107117       0.00448006
C        1.78325127      -1.15882466      -0.08828247      -0.00370057      -0.02720494       0.00539305
C        3.16493535      -1.51572283       0.04361707      -0.00223016      -0.00676984       0.00028031
C        3.91747269      -1.07685880       1.17640426      -0.00578943      -0.00092814      -0.00301562
C        3.28907531      -0.27437719       2.17944095      -0.01539705      -0.00684419      -0.00682147
C        1.90918786       0.08419421       2.04602113      -0.01556176      -0.02724169       0.00059542
C       -0.42812579       1.44547980       0.12067646      -0.02030426      -0.01364473      -0.02052306
C       -1.49108402       2.30315765       0.51761451       0.01333419      -0.01385017      -0.01212846
C       -1.64159841       3.57968156      -0.11070299       0.00240288       0.01008104      -0.00487058
C       -0.72461361       3.98394947      -1.13012868      -0.00197826       0.02253743      -0.00960378
C        0.33971162       3.11378544      -1.51998839      -0.01147834       0.01118209      -0.00198290
C        0.49083304       1.83634189      -0.89138448      -0.02112727      -0.01088411       0.00691762
C       -1.34208078      -0.94325628      -1.35707579       0.02383600       0.00198340       0.00644899
C       -2.11931742      -1.95433710      -2.01036826       0.03414175       0.01851077       0.00750390
H       -3.28795151      -3.75959024      -1.73953252      -0.03468462      -0.03516477      -0.02155043
H       -2.98410739      -3.83334207       0.73558071      -0.01172504      -0.00855445       0.04694684
H       -1.63731751      -2.06433894       1.87908220      -0.01805162      -0.04696802       0.06571533
H       -0.71468341       0.16113481       1.81677321      -0.02789508      -0.04621237      -0.01037280
H        1.24469485      -1.48832921      -0.94801801       0.00629688      -0.00984655      -0.00318998
H        3.63002659      -2.11395155      -0.70831901       0.00213446       0.00842344      -0.00516956
H        4.94637181      -1.34640758       1.27213669      -0.00424564       0.00357970       0.00259720
H        3.84675897       0.05590551       3.02809602      -0.01256301       0.00841613      -0.01507323
H        1.44805284       0.68441217       2.80160426      -0.00756550      -0.00900780      -0.00634114
H       -2.17850640       2.00640336       1.28106559       0.00358192       0.00283919      -0.00808479
H       -2.44010939       4.22436433       0.18151203      -0.00387104       0.02648837      -0.00096470
H       -0.83544820       4.93470706      -1.60147246      -0.00768446       0.04069286      -0.01902696
H        1.02395264       3.41042301      -2.28320918       0.00397282       0.01952736      -0.00725798
H        1.28408729       1.19677648      -1.20631538      -0.00827419       0.00685632       0.00246281
H       -0.89333323      -0.17586123      -1.94413803       0.01480991       0.03211592      -0.04766974
H       -2.24982389      -1.92810482      -3.06882956       0.01519662       0.04172008      -0.02653580
