35
Properties=species:S:1:pos:R:3 Generated=T from=T AOP=T output=T pbc="F F F"
C       -2.73820800      -3.00479100      -1.28464800
C       -2.57043500      -3.09790000       0.14687200
C       -1.74866000      -2.01773200       0.84342900
C       -1.19111200      -0.99499900       0.05794000
C       -0.31553800       0.07093600       0.83144300
C        1.17079700      -0.35884700       0.91705100
C        1.77442700      -1.19199400      -0.06711600
C        3.15201900      -1.53997400       0.06128800
C        3.92457300      -1.05333000       1.16903700
C        3.31140700      -0.21611300       2.15089500
C        1.93030500       0.13696800       2.02085300
C       -0.42028800       1.41563900       0.14974700
C       -1.51210500       2.29167500       0.52302700
C       -1.65857400       3.54253500      -0.10116800
C       -0.70618400       3.96350000      -1.11708000
C        0.38434600       3.08792400      -1.48898400
C        0.53040200       1.83353500      -0.86523800
C       -1.35271800      -0.87296000      -1.36206200
C       -2.17467900      -1.96142700      -2.05260500
H       -3.31568400      -3.76610200      -1.77796400
H       -2.99378300      -3.88514400       0.71339800
H       -1.61549300      -2.07296500       1.89955400
H       -0.71744600       0.15993000       1.82626700
H        1.22156200      -1.55516100      -0.89887800
H        3.61191200      -2.16606400      -0.66976700
H        4.95483600      -1.31632700       1.25801400
H        3.87883900       0.14833800       2.97760900
H        1.47485200       0.76211000       2.76035100
H       -2.20658400       1.98277200       1.26823200
H       -2.45991700       4.19357600       0.16016900
H       -0.81536200       4.90972400      -1.58856900
H        1.07029300       3.40252000      -2.24068300
H        1.32218600       1.19029700      -1.16203500
H       -0.89938900      -0.11605400      -1.95059200
H       -2.30060100      -1.90409300      -3.10778800
