35
Properties=species:S:1:pos:R:3:forces:R:3 Generated=T from=T AOP=T output=T energy=-1035.9100621499258 pbc="F F F"
C       -2.70661072      -3.01162025      -1.23936043      -0.01078422      -0.01405190      -0.00547920
C       -2.53859012      -3.04158338       0.17938377       0.00853068       0.00815256       0.00913191
C       -1.76363802      -2.02717431       0.82708123       0.00767327      -0.00670716       0.00965238
C       -1.16330158      -0.99409438       0.05537968       0.02814189       0.01775674       0.01573204
C       -0.32189780       0.07091550       0.81404710       0.02179679       0.01046095       0.01067696
C        1.16694311      -0.36453979       0.91481403       0.00330065      -0.01074118       0.00297773
C        1.78985705      -1.13776925      -0.10283789      -0.00198429      -0.01391126       0.00248200
C        3.16929134      -1.50133938       0.03293033      -0.00087952      -0.00334832       0.00021191
C        3.91310429      -1.08964729       1.18163020      -0.00349228      -0.00024755      -0.00165188
C        3.27768951      -0.30905360       2.19719234      -0.00695054      -0.00329017      -0.00308233
C        1.90009341       0.05621952       2.06012972      -0.00722810      -0.01401661       0.00008923
C       -0.43085905       1.45190050       0.11158271      -0.00994557      -0.00571656      -0.00997827
C       -1.48597017       2.31483329       0.51907943       0.00705424      -0.00740299      -0.00628309
C       -1.63918620       3.59253865      -0.10715286       0.00115585       0.00536503      -0.00258174
C       -0.73349392       3.99432317      -1.13768296      -0.00107976       0.01108375      -0.00460824
C        0.32232474       3.11903737      -1.53925185      -0.00570874       0.00597231      -0.00133071
C        0.47662099       1.84083124      -0.91174462      -0.01098448      -0.00569917       0.00396474
C       -1.32666960      -0.95361865      -1.35667241       0.01192826       0.00104699       0.00168237
C       -2.10213751      -1.96874405      -2.00568865       0.01652085       0.00789674       0.00476342
H       -3.28118226      -3.76785214      -1.72610534      -0.01903429      -0.01976948      -0.01172847
H       -2.98788005      -3.82017927       0.75431099      -0.00583492      -0.00398812       0.02334552
H       -1.64246039      -2.05205756       1.88843997      -0.00898642      -0.02323896       0.03395459
H       -0.71331904       0.16881663       1.81171194      -0.01396277      -0.02317367      -0.00427021
H        1.25851854      -1.44807718      -0.97397939       0.00320434      -0.00461691      -0.00137551
H        3.63968695      -2.08309008      -0.72857406       0.00024183       0.00461944      -0.00254305
H        4.94061707      -1.36335175       1.28013197      -0.00313917       0.00219109       0.00168232
H        3.82834852       0.00137166       3.05765640      -0.00612945       0.00459642      -0.00754642
H        1.43306287       0.63914493       2.82542411      -0.00288676      -0.00450149      -0.00324456
H       -2.16585327       2.02183841       1.29063916       0.00153479       0.00114039      -0.00399110
H       -2.43073891       4.24134273       0.19554053      -0.00205209       0.01345440      -0.00058493
H       -0.84618743       4.94605278      -1.60759238      -0.00392153       0.02063178      -0.00947236
H        0.99918293       3.41379743      -2.31001269       0.00229459       0.00993815      -0.00396916
H        1.26503538       1.19979347      -1.23546574      -0.00396347       0.00293083       0.00131297
H       -0.87475856      -0.19185512      -1.94956490       0.00788036       0.01633557      -0.02401417
H       -2.22564535      -1.94710786      -3.06542043       0.00769000       0.02084834      -0.01392472
