35
Properties=species:S:1:pos:R:3:forces:R:3 Generated=T from=T AOP=T output=T energy=-1035.8960858650476 pbc="F F F"
C       -2.72584714      -2.99778132      -1.26182565      -0.03017710      -0.04323922       0.00179918
C       -2.54381120      -3.05413880       0.15423711       0.03646930       0.04711704       0.01264489
C       -1.76875773      -2.04428960       0.81115296       0.01536353      -0.03472803       0.01749902
C       -1.17847921      -0.99750189       0.05136045       0.09695090       0.05780030       0.03192316
C       -0.32704994       0.05407581       0.82408033       0.04190845       0.00376929       0.02369730
C        1.16576903      -0.37003107       0.92265929      -0.00574036      -0.04017780       0.01071492
C        1.77558672      -1.18360535      -0.07002267      -0.00612128      -0.04000158       0.01275322
C        3.15970270      -1.53276316       0.05724385       0.00078352      -0.00984646       0.00170212
C        3.92249960      -1.06138609       1.16991133      -0.00552122      -0.00322945      -0.00482251
C        3.30271696      -0.23292737       2.15730242      -0.02595690      -0.01014696      -0.01318262
C        1.92030333       0.11789983       2.02821051      -0.02761838      -0.04168537       0.00277373
C       -0.42457160       1.43789169       0.13195294      -0.02997282      -0.01441507      -0.03626717
C       -1.49721182       2.28879414       0.51618083       0.02138828      -0.01993312      -0.02113899
C       -1.64464090       3.56364548      -0.11479759       0.01027846       0.02859258      -0.01757741
C       -0.71375598       3.97084715      -1.12071170      -0.00538887       0.03590312      -0.01489315
C        0.36090559       3.10702674      -1.49662931      -0.02476511       0.02933368      -0.00377959
C        0.50826561       1.83069361      -0.86650203      -0.03672628      -0.01503841       0.00943319
C       -1.36089077      -0.92936010      -1.35842636       0.03282495      -0.02456904       0.02434526
C       -2.14030056      -1.93719848      -2.01709590       0.05959360       0.04113409       0.02786723
H       -3.29729332      -3.75108937      -1.75680121      -0.02780454      -0.02206147      -0.01167647
H       -2.98062149      -3.85088381       0.71339315       0.00012736       0.01700361       0.05480348
H       -1.63032776      -2.07817072       1.86994780      -0.03771819      -0.07789720       0.04980412
H       -0.71630039       0.15267580       1.82304960      -0.03903963      -0.07479842      -0.01681771
H        1.22849431      -1.53640828      -0.91513026       0.00905754      -0.01530618      -0.00517821
H        3.61825417      -2.15068062      -0.68262067       0.00754253       0.01122162      -0.00829804
H        4.95296974      -1.32587804       1.26224570      -0.00161959       0.00288264       0.00267393
H        3.86854585       0.12117875       2.99110694      -0.02024637       0.00980059      -0.02635317
H        1.46627262       0.73852582       2.77170872      -0.01504913      -0.01438419      -0.01183566
H       -2.19402541       1.98790248       1.26968552       0.01345624       0.00185307      -0.01645768
H       -2.45142994       4.20364834       0.16461690       0.00219941       0.03542696      -0.00540426
H       -0.82234176       4.92049354      -1.59385301      -0.01224320       0.06192242      -0.02899767
H        1.05396862       3.40620913      -2.25092603      -0.00236054       0.02762118      -0.00232627
H        1.30729915       1.19315805      -1.17137901      -0.01863904       0.01241160       0.00966170
H       -0.91424800      -0.15465109      -1.93844651      -0.00585588       0.01111156      -0.04897486
H       -2.27965297      -1.90591919      -3.07487944       0.03062037       0.06655259      -0.00011504
