35
Generated from AOP output
C     -2.766651    -3.020696    -1.337709
C     -2.686670    -3.075582     0.090022
C     -1.863785    -2.015065     0.817079
C     -1.207667    -1.037951     0.030775
C     -0.337789     0.010537     0.823216
C      1.154287    -0.381902     0.896265
C      1.753095    -1.310313    -0.004012
C      3.141730    -1.601735     0.117413
C      3.937513    -0.957451     1.130032
C      3.332505    -0.020359     2.023979
C      1.939374     0.274378     1.902731
C     -0.429076     1.383310     0.180602
C     -1.477566     2.278052     0.604419
C     -1.598657     3.552588     0.015291
C     -0.654502     3.974513    -1.006261
C      0.393772     3.080168    -1.426694
C      0.512492     1.799616    -0.840869
C     -1.279461    -0.955665    -1.388444
C     -2.110439    -2.020545    -2.110150
H     -3.347716    -3.768383    -1.849407
H     -3.177899    -3.826422     0.655787
H     -1.798761    -2.043903     1.878256
H     -0.730131     0.084619     1.823475
H      1.185713    -1.789837    -0.762404
H      3.600099    -2.298959    -0.546240
H      4.977565    -1.179416     1.210469
H      3.916736     0.459716     2.776050
H      1.486119     0.972348     2.574076
H     -2.166213     1.971659     1.356799
H     -2.374946     4.218911     0.311562
H     -0.742922     4.939441    -1.443909
H      1.074906     3.391640    -2.184341
H      1.273626     1.138234    -1.177929
H     -0.754464    -0.238958    -1.971003
H     -2.174220    -1.986586    -3.168927
