35
Generated from AOP output
C     -2.738208    -3.004791    -1.284648
C     -2.570435    -3.097900     0.146872
C     -1.748660    -2.017732     0.843429
C     -1.191112    -0.994999     0.057940
C     -0.315538     0.070936     0.831443
C      1.170797    -0.358847     0.917051
C      1.774427    -1.191994    -0.067116
C      3.152019    -1.539974     0.061288
C      3.924573    -1.053330     1.169037
C      3.311407    -0.216113     2.150895
C      1.930305     0.136968     2.020853
C     -0.420288     1.415639     0.149747
C     -1.512105     2.291675     0.523027
C     -1.658574     3.542535    -0.101168
C     -0.706184     3.963500    -1.117080
C      0.384346     3.087924    -1.488984
C      0.530402     1.833535    -0.865238
C     -1.352718    -0.872960    -1.362062
C     -2.174679    -1.961427    -2.052605
H     -3.315684    -3.766102    -1.777964
H     -2.993783    -3.885144     0.713398
H     -1.615493    -2.072965     1.899554
H     -0.717446     0.159930     1.826267
H      1.221562    -1.555161    -0.898878
H      3.611912    -2.166064    -0.669767
H      4.954836    -1.316327     1.258014
H      3.878839     0.148338     2.977609
H      1.474852     0.762110     2.760351
H     -2.206584     1.982772     1.268232
H     -2.459917     4.193576     0.160169
H     -0.815362     4.909724    -1.588569
H      1.070293     3.402520    -2.240683
H      1.322186     1.190297    -1.162035
H     -0.899389    -0.116054    -1.950592
H     -2.300601    -1.904093    -3.107788
