41
Generated from AOP output
O     -0.521744    -1.061590     2.488023
P     -0.643947    -0.702346     1.115446
C     -2.231211    -0.018146     0.673502
C     -2.424113     1.334270     0.227117
C     -3.741849     1.817090    -0.031598
C     -4.880247     0.974277     0.180395
C     -4.689110    -0.360254     0.664416
C     -3.376876    -0.847520     0.928812
C      0.595115     0.380995     0.411237
C      0.810257     1.727854     0.900547
C      0.256490     2.207188     2.162876
C      0.561473     3.572047     2.362755
S      1.434760     4.255175     1.074072
C      1.476607     2.807742     0.209954
C      1.490918    -0.346965    -0.473912
C      2.818277     0.141870    -0.862403
C      3.706801     0.861816     0.049901
C      4.916868     1.219982    -0.601966
S      4.960810     0.723696    -2.216336
C      3.434797     0.008570    -2.148195
C      0.943040    -1.638739    -0.836570
C      1.509641    -2.630671    -1.705976
C      0.802373    -3.847376    -1.927524
C     -0.462107    -4.096550    -1.259502
C     -1.009487    -3.147586    -0.356796
C     -0.335088    -1.892536    -0.153947
H     -1.597071     1.981917     0.054668
H     -3.878314     2.816489    -0.381528
H     -5.862640     1.341854    -0.013536
H     -5.535456    -0.987427     0.839915
H     -3.243271    -1.831442     1.307256
H     -0.286680     1.605014     2.840070
H      0.237175     4.073518     3.250134
H      1.892094     2.670368    -0.763538
H      3.495136     1.063207     1.066832
H      5.676259     1.748090    -0.065024
H      2.926972    -0.457532    -2.963879
H      2.449030    -2.486896    -2.190175
H      1.207600    -4.589682    -2.576229
H     -0.965320    -5.022038    -1.431780
H     -1.917963    -3.367727     0.152487
