166
Generated from AOP output
C     -3.638801     0.834565     7.087862
C     -3.949177    -0.548784     6.381483
C     -3.451032    -1.690399     7.345171
C     -5.524480    -0.677580     6.273577
C     -3.305308    -0.607993     5.000981
C     -2.311956    -1.574555     4.669575
C     -1.730987    -1.600181     3.355643
C     -2.161746    -0.665813     2.368286
C     -1.590206    -0.679570     0.973900
C     -2.351980    -0.512851    -0.150530
C     -3.816227    -0.459991    -0.374005
C     -4.655493    -1.424302     0.281525
C     -6.072981    -1.371831     0.121193
C     -6.644374    -0.336211    -0.674779
N     -8.018211    -0.266810    -0.796483
C     -8.809368    -1.318763    -1.146967
C     -8.447748    -2.639170    -1.522430
C     -9.520166    -3.528216    -1.901793
C    -10.888789    -3.097345    -1.910263
C    -12.017199    -4.038663    -2.333761
C    -11.512094    -5.473048    -2.749903
C    -12.802105    -3.448646    -3.579502
C    -13.057216    -4.235691    -1.153079
C    -11.235417    -1.760511    -1.529897
C    -10.177125    -0.882753    -1.153696
C    -10.148469     0.525264    -0.744374
C    -11.174915     1.486278    -0.512994
C    -10.781910     2.789359    -0.065494
C    -11.883062     3.822858     0.180598
C    -11.338927     5.214214     0.684365
C    -12.695906     4.097124    -1.153889
C    -12.911104     3.308834     1.274288
C     -9.396773     3.102176     0.140389
C     -8.355043     2.129682    -0.096550
C     -8.762485     0.847167    -0.548895
C     -5.829111     0.625069    -1.337091
C     -4.406114     0.548490    -1.204786
S     -1.207947    -0.453370    -1.602276
O     -1.410092    -1.616028    -2.359892
O     -1.200839     0.846021    -2.128754
C      0.274876    -0.647710    -0.606025
C     -0.100584    -0.738253     0.746944
S      1.270498    -0.710075     1.755194
C      2.350365    -0.549549     0.437032
C      3.845384    -0.448174     0.577910
C      4.711001    -1.050371    -0.394795
C      6.126133    -0.882317    -0.302736
C      6.673238    -0.126748     0.775254
N      8.036619     0.066316     0.834940
C      8.804091     0.463339    -0.220483
C      8.425849     0.812825    -1.546916
C      9.477247     1.250965    -2.428926
C     10.846450     1.345722    -1.997405
C     11.898661     1.831922    -2.996723
C     11.949412     0.899629    -4.278654
C     11.578371     3.300177    -3.505536
C     13.351373     1.859683    -2.380958
C     11.207664     1.001068    -0.657877
C     10.165832     0.565472     0.217647
C     10.162256     0.174452     1.631107
C     11.199109     0.032620     2.598598
C     10.831750    -0.413424     3.909211
C     11.940611    -0.572485     4.950269
C     13.029889    -1.613685     4.454609
C     11.419892    -1.083039     6.348819
C     12.671988     0.812085     5.201986
C      9.463874    -0.708854     4.223812
C      8.413102    -0.568902     3.243783
C      8.792816    -0.111905     1.954024
C      5.833940     0.427572     1.784390
C      4.414364     0.264667     1.683313
C      1.687524    -0.511970    -0.828967
C      2.301662    -0.269860    -2.175695
C      1.948428    -1.091239    -3.287523
C      2.536212    -0.852358    -4.573885
C      3.459003     0.217956    -4.754406
C      4.104015     0.506435    -6.105744
C      5.684442     0.479990    -5.983431
C      3.700261    -0.535875    -7.217110
C      3.696174     1.941662    -6.641907
C      3.801434     1.047977    -3.641889
C      3.229712     0.805168    -2.355891
C     -3.159533     0.307451     2.699121
C     -3.718734     0.339327     4.012705
H     -4.104687     0.800779     8.071498
H     -2.555773     0.936159     7.172380
H     -4.064799     1.633052     6.483915
H     -3.980986    -1.559807     8.288223
H     -3.694855    -2.652972     6.896440
H     -2.377019    -1.579645     7.489112
H     -5.902581     0.168075     5.703817
H     -5.917042    -0.665166     7.289500
H     -5.752854    -1.623244     5.779127
H     -1.979293    -2.300784     5.372272
H     -0.996620    -2.345687     3.132981
H     -4.229393    -2.188523     0.893912
H     -6.678978    -2.093379     0.621886
H     -7.446308    -3.003077    -1.545216
H     -9.257822    -4.521544    -2.182341
H    -10.835338    -5.369709    -3.597790
H    -11.012057    -5.928523    -1.895436
H    -12.396325    -6.047478    -3.030743
H    -12.088100    -3.337819    -4.398224
H    -13.232981    -2.490005    -3.298678
H    -13.582533    -4.164440    -3.840070
H    -12.517303    -4.653703    -0.300691
H    -13.492997    -3.269145    -0.907934
H    -13.821320    -4.928855    -1.505831
H    -12.249061    -1.423655    -1.533728
H    -12.201680     1.232577    -0.661340
H    -10.667653     5.621110    -0.071208
H    -10.824592     5.062907     1.633513
H    -12.208076     5.860800     0.816586
H    -13.168626     3.169075    -1.469074
H    -13.444046     4.858087    -0.929042
H    -11.989547     4.455667    -1.905382
H    -13.656341     4.093439     1.412208
H    -12.355062     3.135616     2.198246
H    -13.375056     2.392748     0.914825
H     -9.098526     4.066138     0.481306
H     -7.341465     2.409539     0.080910
H     -6.252840     1.393328    -1.945156
H     -3.801617     1.267240    -1.711567
H      4.316643    -1.633759    -1.195905
H      6.747323    -1.342085    -1.036703
H      7.427257     0.776095    -1.918255
H      9.210562     1.513562    -3.428427
H     10.980375     0.941079    -4.772042
H     12.732213     1.291391    -4.929574
H     12.186364    -0.114381    -3.951033
H     12.384594     3.587262    -4.182104
H     11.544097     3.961058    -2.637285
H     10.623059     3.281080    -4.027388
H     13.612960     0.849788    -2.065022
H     14.027171     2.204415    -3.164991
H     13.356721     2.551025    -1.538675
H     12.209632     1.065958    -0.300724
H     12.214759     0.243915     2.345738
H     12.526909    -2.570183     4.297036
H     13.470795    -1.242821     3.531855
H     13.782959    -1.696716     5.239211
H     10.962921    -2.063371     6.211963
H     10.702241    -0.360958     6.738448
H     12.291400    -1.152240     7.002627
H     13.436467     0.644514     5.961470
H     13.119500     1.142220     4.266765
H     11.922878     1.524214     5.554809
H      9.184602    -1.046595     5.194217
H      7.415649    -0.816395     3.524849
H      6.228396     0.993499     2.596846
H      3.791101     0.712998     2.427932
H      1.266891    -1.906295    -3.177798
H      2.262073    -1.501266    -5.370852
H      5.991680     1.269763    -5.300924
H      5.974356    -0.503639    -5.607636
H      6.090701     0.651246    -6.980898
H      2.623004    -0.480144    -7.368793
H      4.231544    -0.253303    -8.127471
H      4.005353    -1.528830    -6.886254
H      4.187031     2.073940    -7.607306
H      4.040224     2.687804    -5.927428
H      2.610996     1.965914    -6.751910
H      4.487492     1.857139    -3.746946
H      3.502343     1.440654    -1.540776
H     -3.485075     1.029886     1.981605
H     -4.451535     1.080452     4.234902
