35
Properties=species:S:1:pos:R:3 Generated=T from=T AOP=T output=T pbc="F F F"
C       -2.76665100      -3.02069600      -1.33770900
C       -2.68667000      -3.07558200       0.09002200
C       -1.86378500      -2.01506500       0.81707900
C       -1.20766700      -1.03795100       0.03077500
C       -0.33778900       0.01053700       0.82321600
C        1.15428700      -0.38190200       0.89626500
C        1.75309500      -1.31031300      -0.00401200
C        3.14173000      -1.60173500       0.11741300
C        3.93751300      -0.95745100       1.13003200
C        3.33250500      -0.02035900       2.02397900
C        1.93937400       0.27437800       1.90273100
C       -0.42907600       1.38331000       0.18060200
C       -1.47756600       2.27805200       0.60441900
C       -1.59865700       3.55258800       0.01529100
C       -0.65450200       3.97451300      -1.00626100
C        0.39377200       3.08016800      -1.42669400
C        0.51249200       1.79961600      -0.84086900
C       -1.27946100      -0.95566500      -1.38844400
C       -2.11043900      -2.02054500      -2.11015000
H       -3.34771600      -3.76838300      -1.84940700
H       -3.17789900      -3.82642200       0.65578700
H       -1.79876100      -2.04390300       1.87825600
H       -0.73013100       0.08461900       1.82347500
H        1.18571300      -1.78983700      -0.76240400
H        3.60009900      -2.29895900      -0.54624000
H        4.97756500      -1.17941600       1.21046900
H        3.91673600       0.45971600       2.77605000
H        1.48611900       0.97234800       2.57407600
H       -2.16621300       1.97165900       1.35679900
H       -2.37494600       4.21891100       0.31156200
H       -0.74292200       4.93944100      -1.44390900
H        1.07490600       3.39164000      -2.18434100
H        1.27362600       1.13823400      -1.17792900
H       -0.75446400      -0.23895800      -1.97100300
H       -2.17422000      -1.98658600      -3.16892700
