35
Properties=species:S:1:pos:R:3:forces:R:3 Generated=T from=T AOP=T output=T energy=-1035.9103198961743 pbc="F F F"
C       -2.71030068      -3.01597909      -1.24924605      -0.02045108      -0.02502979      -0.01101551
C       -2.56201624      -3.03673402       0.17204820       0.02768047       0.03675605       0.02048974
C       -1.78604039      -2.02379081       0.82339956      -0.02036261      -0.03587407      -0.01662995
C       -1.16641505      -1.00265197       0.05098822       0.03677423       0.03657637       0.02416773
C       -0.32611260       0.06187845       0.81136583       0.01930402       0.00181835       0.00980819
C        1.16412025      -0.36842046       0.90922956       0.00937082      -0.02260255      -0.00166607
C        1.78587547      -1.15796047      -0.09632395       0.00522265      -0.01454938       0.00192682
C        3.16840651      -1.51144421       0.03953284      -0.00760434      -0.00420502      -0.00754822
C        3.91581045      -1.07334749       1.17555809      -0.00595040       0.00473915       0.00518645
C        3.28060173      -0.27654160       2.17883964      -0.00052121      -0.00220337       0.00195282
C        1.90046846       0.07836532       2.04212589       0.00456201      -0.01392758       0.00730273
C       -0.43391289       1.44634521       0.11508859      -0.00718129       0.00005289      -0.02543496
C       -1.47877634       2.31541834       0.53583707       0.00884589      -0.02804329      -0.00183219
C       -1.62676994       3.59750806      -0.08189182       0.00521767       0.02518080      -0.01780388
C       -0.72541745       3.99898872      -1.11669781      -0.00527916      -0.00189502       0.00595050
C        0.32067666       3.11774132      -1.53117275      -0.00869829       0.02111718      -0.00965301
C        0.46962910       1.83494731      -0.91276469      -0.02758715      -0.02471928       0.02291288
C       -1.30865216      -0.97171613      -1.36362769      -0.01508793      -0.03071209      -0.01310933
C       -2.08526509      -1.98518221      -2.01591724       0.03276070       0.03417595       0.02556300
H       -3.28648768      -3.77092503      -1.73791364      -0.00137362       0.00215504       0.00059663
H       -3.02684386      -3.80602166       0.74733316      -0.00271214      -0.00085468       0.01565165
H       -1.68049100      -2.04238909       1.88686587      -0.00796980      -0.01672901       0.01337997
H       -0.71606288       0.15598590       1.81010713      -0.01425678      -0.02037223      -0.01181649
H        1.25202997      -1.48834093      -0.95818067       0.00432507      -0.00711485      -0.00766877
H        3.63969332      -2.10502953      -0.71225655      -0.01073630       0.00323087      -0.00812796
H        4.94554669      -1.33954200       1.27340224      -0.01185412       0.00728583       0.00542810
H        3.83421256       0.05379751       3.02953461      -0.00025939       0.00948467       0.00667820
H        1.43168470       0.67318155       2.79714945       0.01203848      -0.00345815       0.00335260
H       -2.15485415       2.02347214       1.31133071       0.00352590       0.00203296      -0.00751475
H       -2.41116451       4.25061393       0.23011005      -0.00174600       0.01380843       0.00138212
H       -0.83407075       4.95447275      -1.57959409      -0.00387598       0.02204207      -0.01114127
H        0.99414692       3.41227562      -2.30517820       0.00108572       0.00811704      -0.00054967
H        1.25084946       1.18971180      -1.24584209      -0.00394377       0.00126620       0.00424774
H       -0.83992955      -0.21943694      -1.95579440      -0.00103604       0.00981709      -0.01846372
H       -2.19417205      -1.96924912      -3.07744608       0.00777380       0.01263342      -0.00600214
