35
Properties=species:S:1:pos:R:3:forces:R:3 Generated=T from=T AOP=T output=T energy=-1035.8987227299874 pbc="F F F"
C       -2.73467413      -3.01154973      -1.28878885      -0.04373949      -0.05065547      -0.02429362
C       -2.61212804      -3.03684510       0.13459314       0.03914805       0.05434997       0.01311957
C       -1.83520375      -2.03321258       0.80030203      -0.00436962      -0.03370488      -0.02722381
C       -1.18515885      -1.02303121       0.03885151       0.10249469       0.08504065       0.06479032
C       -0.33845817       0.02802781       0.81543575       0.03372702      -0.00064129       0.02092048
C        1.15822003      -0.38157130       0.90669383       0.01680434      -0.05003632       0.00925296
C        1.76668416      -1.23841343      -0.04914898      -0.00503833      -0.03162871       0.01662882
C        3.15866687      -1.55852281       0.07798810       0.00139347      -0.01120045      -0.00343753
C        3.92835051      -1.01546314       1.15173112      -0.01353348       0.00140381      -0.00311302
C        3.30730486      -0.14450518       2.10163785       0.00044030      -0.01243480      -0.00077032
C        1.91871440       0.17645309       1.97412600      -0.02557091      -0.04654467      -0.00375425
C       -0.43430414       1.42225072       0.14025713      -0.02343495       0.00619151      -0.07303149
C       -1.47489294       2.29319362       0.56629073       0.02806343      -0.08594882      -0.00787317
C       -1.60707726       3.58163456      -0.03860887       0.01304332       0.07016097      -0.04723517
C       -0.69163940       3.98744114      -1.05965411      -0.01406522      -0.00403971       0.01425255
C        0.35241056       3.10450374      -1.47658552      -0.02595385       0.06089570      -0.02713501
C        0.48430797       1.81433556      -0.87427177      -0.08116470      -0.07421399       0.06505282
C       -1.30423877      -0.98750510      -1.37858543       0.00530242      -0.03495757       0.02103867
C       -2.08568376      -1.98808716      -2.04526395       0.04392741       0.02805784       0.04964499
H       -3.31054683      -3.76053593      -1.78822690       0.00528280       0.01816548       0.00835232
H       -3.09621719      -3.80430485       0.69588881      -0.00039041       0.01197799       0.04305850
H       -1.74518628      -2.04774871       1.86477196      -0.02746900      -0.05196540       0.03299027
H       -0.72420775       0.11507604       1.81713243      -0.03881299      -0.05822721      -0.03324858
H        1.21507687      -1.64617624      -0.86562995       0.01319797      -0.01785446      -0.00844095
H        3.62021861      -2.20731438      -0.63300572      -0.00978668       0.00519298      -0.01736291
H        4.96439146      -1.25829176       1.24242034      -0.00844968       0.01001640       0.00818499
H        3.87877002       0.26396343       2.90533912      -0.00426160       0.01774493       0.00129617
H        1.45904608       0.82810032       2.68675153       0.01248800      -0.00756426       0.00441458
H       -2.15869820       1.99593936       1.33340994       0.01056364       0.00831682      -0.02186589
H       -2.39143023       4.23527289       0.27104953      -0.00411425       0.03860679       0.00601804
H       -0.78850596       4.94834435      -1.51142791      -0.01096192       0.06299819      -0.03044182
H        1.03404798       3.40233118      -2.24200136       0.00280250       0.02224229       0.00036154
H        1.26103351       1.16384053      -1.20837890      -0.00911570       0.00743697       0.00920776
H       -0.80854928      -0.24240433      -1.95695366      -0.00571675       0.02095477      -0.05446605
H       -2.18044596      -1.97522379      -3.10813997       0.02727017       0.04186396      -0.00489177
