35
Properties=species:S:1:pos:R:3:forces:R:3 Generated=T from=T AOP=T output=T energy=-1035.9054276699267 pbc="F F F"
C       -2.72250154      -3.01374368      -1.26904468      -0.03425169      -0.04080526      -0.01874636
C       -2.58720488      -3.03691949       0.15326033       0.03963769       0.05341948       0.02400185
C       -1.81063946      -2.02846215       0.81193468      -0.02074775      -0.04553051      -0.02540866
C       -1.17594673      -1.01285696       0.04489295       0.07037858       0.06406573       0.04525403
C       -0.33257446       0.04484087       0.81327116       0.03070752       0.00175683       0.01684411
C        1.16086010      -0.37517046       0.90766329       0.01493761      -0.03945889       0.00121967
C        1.77584608      -1.19871698      -0.07376311       0.00436193      -0.02502520       0.00809328
C        3.16336132      -1.53544933       0.05797228      -0.00795908      -0.00816945      -0.00874137
C        3.92240088      -1.04432873       1.16389562      -0.01016375       0.00539001       0.00397610
C        3.29437594      -0.20994157       2.14126078      -0.00147586      -0.00609959       0.00128250
C        1.90976249       0.12794190       2.00890065      -0.00294211      -0.02897717       0.00593779
C       -0.43416061       1.43428394       0.12767541      -0.01479150       0.00213465      -0.04997091
C       -1.47684857       2.30429254       0.55108594       0.01799889      -0.05645989      -0.00450368
C       -1.61693287       3.58957203      -0.06023805       0.00955643       0.04826721      -0.03334313
C       -0.70850426       3.99323672      -1.08819752      -0.00987294      -0.00339588       0.01070081
C        0.33657151       3.11113378      -1.50387566      -0.01725766       0.04112176      -0.01855863
C        0.47700695       1.82461028      -0.89348676      -0.05470944      -0.04935138       0.04456801
C       -1.30638847      -0.97950053      -1.37107050      -0.01213571      -0.04090119      -0.00485879
C       -2.08554480      -1.98672608      -2.03069817       0.04621170       0.04171165       0.04153241
H       -3.29851389      -3.76569690      -1.76310033       0.00049524       0.00831566       0.00327728
H       -3.06163780      -3.80522185       0.72162985      -0.00276660       0.00341259       0.03022181
H       -1.71293194      -2.04511494       1.87588166      -0.01738114      -0.03423809       0.02448445
H       -0.72015867       0.13550091       1.81358831      -0.02726817      -0.03982812      -0.02272104
H        1.23273879      -1.56806834      -0.91372158       0.00881127      -0.01368336      -0.01069420
H        3.62995681      -2.15697341      -0.67388979      -0.01416822       0.00483322      -0.01379406
H        4.95548113      -1.29885286       1.25821742      -0.01533311       0.01079785       0.00792469
H        3.85736031       0.15980622       2.96922098      -0.00185491       0.01577957       0.00715535
H        1.44536797       0.75152657       2.74324006       0.01632502      -0.00591533       0.00479238
H       -2.15679334       2.00966663       1.32240271       0.00691591       0.00500848      -0.01466081
H       -2.40130300       4.24293519       0.25058538      -0.00319987       0.02647624       0.00369578
H       -0.81127296       4.95145640      -1.54553307      -0.00742342       0.04261421      -0.02119577
H        1.01412429       3.40732480      -2.27359886       0.00214146       0.01539734      -0.00040238
H        1.25596624       1.17668478      -1.22707246      -0.00673116       0.00397340       0.00704494
H       -0.82408768      -0.23086922      -1.95642726      -0.00303591       0.01658146      -0.03689919
H       -2.18723789      -1.97219866      -3.09286269       0.01699078       0.02678199      -0.00750825
