35
Properties=species:S:1:pos:R:3:forces:R:3 Generated=T from=T AOP=T output=T energy=-1035.8894771173582 pbc="F F F"
C       -2.74757916      -3.00955047      -1.30960447      -0.04285455      -0.04643683      -0.02236121
C       -2.63814583      -3.03677479       0.11519139       0.03384352       0.05040967      -0.00816981
C       -1.86087755      -2.03817650       0.78829321       0.02340560      -0.00800195      -0.03342345
C       -1.19447238      -1.03347985       0.03266108       0.13034040       0.09370309       0.07873222
C       -0.34387639       0.01084818       0.81801600       0.02599889      -0.01002632       0.02137613
C        1.15624617      -0.38765429       0.90616571       0.01164959      -0.05639180       0.02176388
C        1.75799835      -1.27857447      -0.02144716      -0.01993588      -0.03378117       0.02996021
C        3.15413320      -1.58152356       0.10051140       0.01927544      -0.01208021       0.00666945
C        3.93382077      -0.98542860       1.13847026      -0.01260886      -0.00773264      -0.01365599
C        3.32000205      -0.07739596       2.05820572       0.00051220      -0.02196353      -0.00692184
C        1.92767448       0.22602129       1.93612261      -0.05874185      -0.06716340      -0.01604327
C       -0.43428863       1.40965371       0.15349660      -0.03498339       0.01588968      -0.09570120
C       -1.47280441       2.28147812       0.58231754       0.03896759      -0.11140442      -0.01611397
C       -1.59679508       3.57326190      -0.01593031       0.01822650       0.08860172      -0.05942554
C       -0.67397441       3.98120141      -1.02962819      -0.01850298      -0.00011622       0.01480765
C        0.36904958       3.09750866      -1.44804551      -0.03781272       0.07748296      -0.03097743
C        0.49194316       1.80353894      -0.85407278      -0.10644579      -0.09472125       0.07897981
C       -1.30203643      -0.99574352      -1.38664163       0.02978314      -0.02694134       0.06147903
C       -2.08581279      -1.98947605      -2.06065130       0.03345321       0.00369383       0.05987409
H       -3.32336704      -3.75544222      -1.81469191       0.01428710       0.03305636       0.01717584
H       -3.13249135      -3.80360589       0.66901789       0.00893807       0.03161567       0.05016967
H       -1.77868134      -2.05028646       1.85355260      -0.03982167      -0.07100486       0.02869054
H       -0.72837010       0.09383607       1.82087185      -0.04841992      -0.07605763      -0.04210862
H        1.19837611      -1.72581722      -0.81171154       0.01743493      -0.01824475      -0.00101947
H        3.61003714      -2.25807952      -0.58770450       0.00309312       0.00521632      -0.01816754
H        4.97262436      -1.21598346       1.22527669       0.00774497       0.00457062       0.00563122
H        3.89931401       0.37073860       2.83499537      -0.00810652       0.01356031      -0.01173794
H        1.47335562       0.90621247       2.62511571       0.00047078      -0.01082164      -0.00007430
H       -2.16072965       1.98166170       1.34493009       0.01467751       0.01076939      -0.02847525
H       -2.38112015       4.22724501       0.29251999      -0.00380780       0.04996884       0.00803212
H       -0.76464547       4.94496391      -1.47561208      -0.01451265       0.08075080      -0.03767281
H        1.05493031       3.39703888      -2.20891151       0.00313876       0.02872930       0.00185012
H        1.26634608       1.15052497      -1.18894983      -0.01233920       0.01179621       0.01223764
H       -0.79220721      -0.25418328      -1.95761172      -0.01604889       0.01484412      -0.06593418
H       -2.17357902      -1.97855589      -3.12451823       0.03970133       0.05823107       0.01055423
